NAME : att48.tsp
TYPE : TOUR
DIMENSION : 48
TOUR_LENGTH : 34066.870752804076
TOUR_SECTION
1
16
22
3
34
41
29
2
26
4
35
45
10
24
42
5
48
39
32
21
13
25
14
23
40
15
12
11
47
20
33
46
36
30
43
17
27
19
37
6
28
7
18
44
31
38
9
8
-1
